GLPSOL--GLPK LP/MIP Solver 5.0
Parameter(s) specified in the command line:
 --lp ../modeles/4_274.lp --log 4_274.log
Reading problem data from '../modeles/4_274.lp'...
1113 rows, 2200 columns, 7684 non-zeros
1096 integer variables, all of which are binary
3323 lines were read
GLPK Integer Optimizer 5.0
1113 rows, 2200 columns, 7684 non-zeros
1096 integer variables, all of which are binary
Preprocessing...
1080 constraint coefficient(s) were reduced
1113 rows, 2196 columns, 7680 non-zeros
1096 integer variables, all of which are binary
Scaling...
 A: min|aij| =  2.131e-04  max|aij| =  4.000e+00  ratio =  1.877e+04
GM: min|aij| =  8.544e-02  max|aij| =  1.170e+01  ratio =  1.370e+02
EQ: min|aij| =  7.299e-03  max|aij| =  1.000e+00  ratio =  1.370e+02
2N: min|aij| =  6.820e-03  max|aij| =  1.769e+00  ratio =  2.594e+02
Constructing initial basis...
Size of triangular part is 1113
Solving LP relaxation...
GLPK Simplex Optimizer 5.0
1113 rows, 2196 columns, 7680 non-zeros
      0: obj =   8.000000000e+00 inf =   1.950e+01 (9)
     75: obj =   4.168731516e-01 inf =   0.000e+00 (0)
*   266: obj =  -1.999841320e+00 inf =   8.583e-15 (0)
OPTIMAL LP SOLUTION FOUND
Integer optimization begins...
Long-step dual simplex will be used
+   266: mip =     not found yet >=              -inf        (1; 0)
+   742: >>>>>  -1.999836584e+00 >=  -1.999841320e+00 < 0.1% (468; 0)
+   743: >>>>>  -1.999841320e+00 >=  -1.999841320e+00 < 0.1% (2; 470)
+   743: mip =  -1.999841320e+00 >=     tree is empty   0.0% (0; 935)
INTEGER OPTIMAL SOLUTION FOUND
Time used:   0.7 secs
Memory used: 3.4 Mb (3519324 bytes)
